10 45
1 2 23
1 3 11
1 4 5
1 5 22
1 6 28
1 7 24
1 8 19
1 9 28
1 10 7
2 3 25
2 4 3
2 5 5
2 6 10
2 7 9
2 8 4
2 9 11
2 10 17
3 4 3
3 5 1
3 6 2
3 7 3
3 8 24
3 9 10
3 10 18
4 5 10
4 6 20
4 7 18
4 8 4
4 9 4
4 10 25
5 6 5
5 7 25
5 8 6
5 9 13
5 10 11
6 7 11
6 8 24
6 9 26
6 10 29
7 8 20
7 9 29
7 10 26
8 9 15
8 10 0
9 10 11
